c b=6,c=1409
p cnf 23 201
6 -12 0
1 2 3 5 6 -19 0
2 3 4 6 -20 0
4 6 -22 0
-6 12 0
1 2 3 5 -6 19 0
1 3 4 5 -6 20 0
1 5 -6 22 0
5 -11 0
1 2 4 5 -18 0
1 3 4 5 -21 0
1 5 -23 0
2 3 4 -5 6 19 0
4 -5 6 21 0
6 -23 0
2 3 4 -5 -6 -19 0
1 3 4 -6 -21 0
-5 -6 23 0
-5 11 0
1 2 4 -5 18 0
2 3 4 -5 -20 0
4 -5 -22 0
4 -10 0
1 3 4 -17 0
1 2 3 -4 6 -19 0
3 -4 5 6 20 0
3 -4 6 -21 0
5 6 -22 0
1 2 3 -4 -6 19 0
1 2 3 -4 5 -6 -20 0
1 -4 5 -6 21 0
1 2 3 -4 5 18 0
2 3 -5 6 -20 0
-4 -5 6 22 0
1 3 -4 -5 -6 20 0
-5 -6 -22 0
1 2 3 -4 -5 -18 0
1 3 -4 -5 -21 0
-4 10 0
1 3 -4 17 0
3 -9 0
2 3 -16 0
2 -3 4 5 6 19 0
4 5 6 -21 0
2 -3 4 5 -6 -19 0
1 -3 5 -6 21 0
1 2 -3 5 -18 0
2 -3 4 5 -20 0
1 2 -3 4 -5 6 -19 0
-3 4 -5 6 20 0
1 2 -3 4 -5 -6 19 0
1 2 -3 4 -6 -20 0
4 -5 -6 -21 0
1 2 -3 -5 18 0
1 2 -3 4 17 0
1 2 -4 5 6 -19 0
2 -3 -4 6 -20 0
1 2 -4 5 -6 19 0
1 -3 -4 5 -6 20 0
1 -3 -4 5 21 0
2 -3 -4 -5 6 19 0
-4 -5 6 -21 0
2 -3 -4 -5 -6 -19 0
1 -3 -4 -6 21 0
2 -3 -4 -5 -20 0
1 2 -3 -4 -17 0
-3 9 0
2 -3 16 0
2 -8 0
1 2 -15 0
1 -2 3 4 6 -19 0
1 3 4 5 6 -20 0
1 -2 3 4 -6 19 0
1 -2 3 5 -6 20 0
1 -2 3 4 5 18 0
-2 4 -5 6 20 0
1 3 4 -5 -6 -20 0
1 -2 3 4 -5 -18 0
1 -2 4 -17 0
-2 3 -4 5 6 19 0
-2 3 -4 5 -6 -19 0
1 -2 3 -4 5 -18 0
-2 3 -4 5 20 0
1 -2 3 -5 6 -19 0
1 3 -4 -5 6 -20 0
1 -2 3 -5 -6 19 0
1 -2 3 -4 -6 20 0
1 -2 3 -4 -5 18 0
1 -2 -4 17 0
1 -2 3 16 0
1 -2 -3 5 6 -19 0
-2 -3 4 6 20 0
1 -2 -3 5 -6 19 0
1 -3 4 5 -6 -20 0
1 -3 4 5 -18 0
-2 -3 4 -5 6 19 0
-2 -3 4 -5 -6 -19 0
1 -3 4 -5 18 0
-2 -3 4 -5 20 0
1 -2 -3 -4 6 -19 0
1 -3 -4 5 6 -20 0
1 -2 -3 -4 -6 19 0
1 -2 -4 5 -6 20 0
1 -2 -3 -4 5 18 0
-2 -3 -5 6 20 0
1 -3 -4 -5 -6 -20 0
1 -2 -3 -4 -5 -18 0
1 -2 -3 -16 0
-2 8 0
1 -2 15 0
1 -7 0
1 -14 0
2 3 4 5 6 -19 0
2 3 4 5 -6 19 0
-1 2 3 5 -6 20 0
2 5 -6 22 0
-1 2 3 5 -18 0
2 3 4 5 -21 0
2 5 -23 0
-1 2 4 -5 6 19 0
-1 2 4 -5 -6 -19 0
2 3 4 -6 -21 0
-1 2 3 -5 18 0
-1 2 3 4 17 0
-1 3 -4 5 6 19 0
-1 3 -4 5 -6 -19 0
2 -4 5 -6 21 0
-1 3 -4 5 20 0
2 3 -4 -5 6 -19 0
2 3 -4 -5 -6 19 0
-1 2 3 -4 -6 20 0
2 3 -4 -5 -21 0
-1 2 3 -4 -17 0
-1 3 -16 0
-1 2 -3 4 6 19 0
-1 2 -3 4 -6 -19 0
2 -3 5 -6 21 0
-1 2 -3 4 5 18 0
-1 2 -3 4 -5 -18 0
-1 -3 4 -5 20 0
-1 2 -3 4 -17 0
2 -3 -4 5 6 -19 0
2 -3 -4 5 -6 19 0
-1 2 -4 5 -6 20 0
-1 2 -4 5 -18 0
2 -3 -4 5 21 0
-1 2 -3 -5 6 19 0
-1 2 -3 -5 -6 -19 0
2 -3 -4 -6 21 0
-1 2 -4 -5 18 0
-1 2 -3 -4 17 0
-1 -3 16 0
-1 2 15 0
-1 -2 3 5 6 19 0
-1 3 5 6 -21 0
-1 -2 3 5 -6 -19 0
-1 -2 3 5 -6 21 0
3 5 -6 22 0
-1 -2 4 5 -18 0
-1 -2 3 4 5 -20 0
3 5 -23 0
-2 3 4 -5 6 -19 0
-2 3 4 -5 -6 19 0
-1 -2 3 4 -6 -20 0
-1 -2 4 -5 18 0
-2 3 4 -17 0
-1 -2 3 -4 6 19 0
-1 -2 3 -4 -6 -19 0
-1 -2 3 -4 -6 21 0
-1 -2 3 -4 5 18 0
-1 -2 3 -4 -5 -18 0
-1 -2 3 -4 -5 -20 0
-2 3 -4 17 0
-2 -3 4 5 6 -19 0
-2 -3 4 5 -6 19 0
-1 -2 -3 5 -6 -20 0
-1 -2 4 5 -6 21 0
4 5 -6 22 0
-1 -2 -3 5 -18 0
4 5 -23 0
-1 -3 4 -5 6 19 0
-1 -3 4 -5 -6 -19 0
-1 -2 -3 -5 18 0
-1 -2 -3 4 17 0
-1 -2 -4 5 6 19 0
-3 -4 5 6 21 0
-1 -2 -4 5 -6 -19 0
-1 -2 -3 -4 5 -6 -21 0
-1 -2 -3 -4 -6 23 0
-1 -2 -3 -4 5 -20 0
-1 -2 -3 -4 5 -22 0
-2 -3 -4 -5 6 -19 0
-2 -3 -4 -5 -6 19 0
-1 -2 -3 -4 -6 -20 0
-1 -2 -4 -5 -6 21 0
-1 -2 -3 -4 -6 -22 0
-1 -2 -3 -4 -17 0
-1 -2 -15 0
-1 7 0
-1 14 0
-13 0
